c ren 1 -> 1
c ren 2 -> 2
c ren 3 -> 3
c ren 4 -> 4
c ren 5 -> 5
c ren 6 -> 6
c ren 7 -> 7
c ren 8 -> 8
c ren 9 -> 9
c ren 10 -> 10
c ren 11 -> 11
c ren 18 -> 12
c ren 19 -> 13
c ren 20 -> 14
c ren 21 -> 15
c ren 22 -> 16
c ren 23 -> 17
c ren 24 -> 18
c ren 25 -> 19
c ren 37 -> 20
c ren 54 -> 21
p cnf 21 82
a 1 2 3 4 5 6 7 8 9 10 11 12 13 14 15 0
d 16 2 12 0
d 17 9 14 0
d 18 7 13 0
d 19 11 15 0
e 20 21 0
1 7 8 9 10 -12 -13 -14 -15 -20 -21 0
1 -8 -12 -13 14 15 -20 -21 0
-1 -7 12 -13 14 15 -20 -21 0
1 7 8 -9 -12 -13 -14 15 -20 -21 0
-3 -6 -20 0
-1 -4 -16 21 0
-1 12 13 14 15 20 -21 0
6 16 20 0
-2 -5 -16 21 0
1 2 -6 16 21 0
-1 -6 -16 21 0
-3 6 20 0
-4 6 20 0
-1 -8 12 -13 14 15 -20 -21 0
1 -7 -12 -13 14 15 -20 -21 0
-1 7 8 -10 12 -13 -14 15 -20 -21 0
1 -12 13 14 15 20 -21 0
-1 7 8 9 10 12 -13 -14 -15 -20 -21 0
-1 7 -8 -20 21 0
1 2 6 7 -8 20 21 0
1 2 6 7 9 -11 20 21 0
-5 7 9 -10 -20 21 0
1 7 8 -10 -12 -13 -14 15 -20 -21 0
-2 -3 -16 21 0
-2 -6 -16 21 0
1 2 -4 16 21 0
-5 -6 -20 0
-1 -18 21 0
-1 -5 -16 21 0
-1 -17 21 0
-4 7 9 -10 -20 21 0
-6 7 -8 -20 21 0
3 4 5 -6 -16 20 0
-1 -19 21 0
-5 6 20 0
1 2 -5 16 21 0
-2 -17 21 0
-4 7 9 -11 -20 21 0
3 4 5 6 -16 -20 0
-1 7 8 -9 12 -13 -14 15 -20 -21 0
-3 7 9 -11 -20 21 0
-1 -3 -16 21 0
-3 -18 21 0
-4 -18 21 0
-5 7 9 -11 -20 21 0
1 2 6 7 9 -10 20 21 0
-4 -6 -20 0
-3 -19 21 0
-3 -17 21 0
-2 -18 21 0
-3 7 -8 -20 21 0
1 2 -3 16 21 0
-4 7 -8 -20 21 0
-5 -18 21 0
-4 -19 21 0
-6 7 9 -11 -20 21 0
1 2 3 4 5 6 -7 18 21 0
-6 -17 21 0
1 2 3 4 5 6 7 8 9 10 11 19 21 0
-5 7 -8 -20 21 0
-5 -19 21 0
1 2 3 4 5 6 7 8 -9 17 21 0
-5 -17 21 0
-2 7 9 -11 -20 21 0
-6 16 -20 0
-2 7 9 -10 -20 21 0
-7 -17 21 0
-6 -18 21 0
-6 -19 21 0
-4 -17 21 0
-1 7 9 -10 -20 21 0
-3 7 9 -10 -20 21 0
-7 -19 21 0
-1 7 9 -11 -20 21 0
-8 -19 21 0
-8 -17 21 0
-6 7 9 -10 -20 21 0
-9 -19 21 0
-2 -19 21 0
-10 -19 21 0
-2 -4 -16 21 0
-2 7 -8 -20 21 0
